c 0.011354923248291016 (encode time in sec)
p cnf 88 1048
1 2 3 4 0
1 2 -3 6 0
1 -2 3 6 0
1 -2 -3 5 0
-1 2 3 8 0
-1 2 -3 7 0
-1 -2 3 9 0
-1 -2 -3 10 0
11 12 13 14 0
11 12 -13 16 0
11 -12 13 17 0
11 -12 -13 18 0
-11 12 13 15 0
-11 12 -13 19 0
-11 -12 13 20 0
-11 -12 -13 20 0
21 22 23 24 0
21 22 -23 26 0
21 -22 23 25 0
21 -22 -23 27 0
-21 22 23 28 0
-21 22 -23 29 0
-21 -22 23 30 0
-21 -22 -23 31 0
32 33 34 1 2 3 11 12 13 35 0
32 33 34 1 2 3 11 12 -13 36 0
32 33 34 1 2 3 11 -12 13 35 0
32 33 34 1 2 3 11 -12 -13 35 0
32 33 34 1 2 3 -11 12 13 35 0
32 33 34 1 2 3 -11 12 -13 38 0
32 33 34 1 2 3 -11 -12 13 35 0
32 33 34 1 2 3 -11 -12 -13 35 0
32 33 34 1 2 -3 11 12 13 35 0
32 33 34 1 2 -3 11 12 -13 36 0
32 33 34 1 2 -3 11 -12 13 38 0
32 33 34 1 2 -3 11 -12 -13 50 0
32 33 34 1 2 -3 -11 12 13 38 0
32 33 34 1 2 -3 -11 12 -13 37 0
32 33 34 1 2 -3 -11 -12 13 35 0
32 33 34 1 2 -3 -11 -12 -13 35 0
32 33 34 1 -2 3 11 12 13 39 0
32 33 34 1 -2 3 11 12 -13 50 0
32 33 34 1 -2 3 11 -12 13 35 0
32 33 34 1 -2 3 11 -12 -13 45 0
32 33 34 1 -2 3 -11 12 13 50 0
32 33 34 1 -2 3 -11 12 -13 35 0
32 33 34 1 -2 3 -11 -12 13 35 0
32 33 34 1 -2 3 -11 -12 -13 35 0
32 33 34 1 -2 -3 11 12 13 38 0
32 33 34 1 -2 -3 11 12 -13 38 0
32 33 34 1 -2 -3 11 -12 13 37 0
32 33 34 1 -2 -3 11 -12 -13 57 0
32 33 34 1 -2 -3 -11 12 13 40 0
32 33 34 1 -2 -3 -11 12 -13 45 0
32 33 34 1 -2 -3 -11 -12 13 38 0
32 33 34 1 -2 -3 -11 -12 -13 35 0
32 33 34 -1 2 3 11 12 13 35 0
32 33 34 -1 2 3 11 12 -13 50 0
32 33 34 -1 2 3 11 -12 13 40 0
32 33 34 -1 2 3 11 -12 -13 57 0
32 33 34 -1 2 3 -11 12 13 51 0
32 33 34 -1 2 3 -11 12 -13 50 0
32 33 34 -1 2 3 -11 -12 13 35 0
32 33 34 -1 2 3 -11 -12 -13 38 0
32 33 34 -1 2 -3 11 12 13 35 0
32 33 34 -1 2 -3 11 12 -13 38 0
32 33 34 -1 2 -3 11 -12 13 50 0
32 33 34 -1 2 -3 11 -12 -13 38 0
32 33 34 -1 2 -3 -11 12 13 38 0
32 33 34 -1 2 -3 -11 12 -13 50 0
32 33 34 -1 2 -3 -11 -12 13 38 0
32 33 34 -1 2 -3 -11 -12 -13 38 0
32 33 34 -1 -2 3 11 12 13 35 0
32 33 34 -1 -2 3 11 12 -13 38 0
32 33 34 -1 -2 3 11 -12 13 38 0
32 33 34 -1 -2 3 11 -12 -13 35 0
32 33 34 -1 -2 3 -11 12 13 45 0
32 33 34 -1 -2 3 -11 12 -13 38 0
32 33 34 -1 -2 3 -11 -12 13 35 0
32 33 34 -1 -2 3 -11 -12 -13 35 0
32 33 34 -1 -2 -3 11 12 13 38 0
32 33 34 -1 -2 -3 11 12 -13 35 0
32 33 34 -1 -2 -3 11 -12 13 50 0
32 33 34 -1 -2 -3 11 -12 -13 35 0
32 33 34 -1 -2 -3 -11 12 13 50 0
32 33 34 -1 -2 -3 -11 12 -13 35 0
32 33 34 -1 -2 -3 -11 -12 13 35 0
32 33 34 -1 -2 -3 -11 -12 -13 35 0
32 33 -34 1 2 3 11 12 13 35 0
32 33 -34 1 2 3 11 12 -13 38 0
32 33 -34 1 2 3 11 -12 13 35 0
32 33 -34 1 2 3 11 -12 -13 35 0
32 33 -34 1 2 3 -11 12 13 35 0
32 33 -34 1 2 3 -11 12 -13 38 0
32 33 -34 1 2 3 -11 -12 13 35 0
32 33 -34 1 2 3 -11 -12 -13 35 0
32 33 -34 1 2 -3 11 12 13 35 0
32 33 -34 1 2 -3 11 12 -13 38 0
32 33 -34 1 2 -3 11 -12 13 36 0
32 33 -34 1 2 -3 11 -12 -13 39 0
32 33 -34 1 2 -3 -11 12 13 38 0
32 33 -34 1 2 -3 -11 12 -13 37 0
32 33 -34 1 2 -3 -11 -12 13 35 0
32 33 -34 1 2 -3 -11 -12 -13 35 0
32 33 -34 1 -2 3 11 12 13 50 0
32 33 -34 1 -2 3 11 12 -13 39 0
32 33 -34 1 -2 3 11 -12 13 35 0
32 33 -34 1 -2 3 11 -12 -13 45 0
32 33 -34 1 -2 3 -11 12 13 50 0
32 33 -34 1 -2 3 -11 12 -13 35 0
32 33 -34 1 -2 3 -11 -12 13 35 0
32 33 -34 1 -2 3 -11 -12 -13 35 0
32 33 -34 1 -2 -3 11 12 13 36 0
32 33 -34 1 -2 -3 11 12 -13 36 0
32 33 -34 1 -2 -3 11 -12 13 37 0
32 33 -34 1 -2 -3 11 -12 -13 57 0
32 33 -34 1 -2 -3 -11 12 13 40 0
32 33 -34 1 -2 -3 -11 12 -13 45 0
32 33 -34 1 -2 -3 -11 -12 13 38 0
32 33 -34 1 -2 -3 -11 -12 -13 35 0
32 33 -34 -1 2 3 11 12 13 35 0
32 33 -34 -1 2 3 11 12 -13 39 0
32 33 -34 -1 2 3 11 -12 13 40 0
32 33 -34 -1 2 3 11 -12 -13 57 0
32 33 -34 -1 2 3 -11 12 13 51 0
32 33 -34 -1 2 3 -11 12 -13 50 0
32 33 -34 -1 2 3 -11 -12 13 35 0
32 33 -34 -1 2 3 -11 -12 -13 38 0
32 33 -34 -1 2 -3 11 12 13 35 0
32 33 -34 -1 2 -3 11 12 -13 38 0
32 33 -34 -1 2 -3 11 -12 13 50 0
32 33 -34 -1 2 -3 11 -12 -13 38 0
32 33 -34 -1 2 -3 -11 12 13 38 0
32 33 -34 -1 2 -3 -11 12 -13 50 0
32 33 -34 -1 2 -3 -11 -12 13 38 0
32 33 -34 -1 2 -3 -11 -12 -13 38 0
32 33 -34 -1 -2 3 11 12 13 35 0
32 33 -34 -1 -2 3 11 12 -13 38 0
32 33 -34 -1 -2 3 11 -12 13 38 0
32 33 -34 -1 -2 3 11 -12 -13 35 0
32 33 -34 -1 -2 3 -11 12 13 45 0
32 33 -34 -1 -2 3 -11 12 -13 38 0
32 33 -34 -1 -2 3 -11 -12 13 35 0
32 33 -34 -1 -2 3 -11 -12 -13 35 0
32 33 -34 -1 -2 -3 11 12 13 38 0
32 33 -34 -1 -2 -3 11 12 -13 35 0
32 33 -34 -1 -2 -3 11 -12 13 50 0
32 33 -34 -1 -2 -3 11 -12 -13 35 0
32 33 -34 -1 -2 -3 -11 12 13 50 0
32 33 -34 -1 -2 -3 -11 12 -13 35 0
32 33 -34 -1 -2 -3 -11 -12 13 35 0
32 33 -34 -1 -2 -3 -11 -12 -13 35 0
32 -33 34 1 2 3 11 12 13 35 0
32 -33 34 1 2 3 11 12 -13 38 0
32 -33 34 1 2 3 11 -12 13 35 0
32 -33 34 1 2 3 11 -12 -13 35 0
32 -33 34 1 2 3 -11 12 13 35 0
32 -33 34 1 2 3 -11 12 -13 38 0
32 -33 34 1 2 3 -11 -12 13 35 0
32 -33 34 1 2 3 -11 -12 -13 35 0
32 -33 34 1 2 -3 11 12 13 35 0
32 -33 34 1 2 -3 11 12 -13 38 0
32 -33 34 1 2 -3 11 -12 13 38 0
32 -33 34 1 2 -3 11 -12 -13 50 0
32 -33 34 1 2 -3 -11 12 13 38 0
32 -33 34 1 2 -3 -11 12 -13 37 0
32 -33 34 1 2 -3 -11 -12 13 35 0
32 -33 34 1 2 -3 -11 -12 -13 35 0
32 -33 34 1 -2 3 11 12 13 50 0
32 -33 34 1 -2 3 11 12 -13 50 0
32 -33 34 1 -2 3 11 -12 13 35 0
32 -33 34 1 -2 3 11 -12 -13 41 0
32 -33 34 1 -2 3 -11 12 13 50 0
32 -33 34 1 -2 3 -11 12 -13 35 0
32 -33 34 1 -2 3 -11 -12 13 35 0
32 -33 34 1 -2 3 -11 -12 -13 35 0
32 -33 34 1 -2 -3 11 12 13 38 0
32 -33 34 1 -2 -3 11 12 -13 38 0
32 -33 34 1 -2 -3 11 -12 13 59 0
32 -33 34 1 -2 -3 11 -12 -13 52 0
32 -33 34 1 -2 -3 -11 12 13 40 0
32 -33 34 1 -2 -3 -11 12 -13 45 0
32 -33 34 1 -2 -3 -11 -12 13 38 0
32 -33 34 1 -2 -3 -11 -12 -13 35 0
32 -33 34 -1 2 3 11 12 13 35 0
32 -33 34 -1 2 3 11 12 -13 50 0
32 -33 34 -1 2 3 11 -12 13 42 0
32 -33 34 -1 2 3 11 -12 -13 52 0
32 -33 34 -1 2 3 -11 12 13 51 0
32 -33 34 -1 2 3 -11 12 -13 50 0
32 -33 34 -1 2 3 -11 -12 13 35 0
32 -33 34 -1 2 3 -11 -12 -13 38 0
32 -33 34 -1 2 -3 11 12 13 35 0
32 -33 34 -1 2 -3 11 12 -13 38 0
32 -33 34 -1 2 -3 11 -12 13 50 0
32 -33 34 -1 2 -3 11 -12 -13 38 0
32 -33 34 -1 2 -3 -11 12 13 38 0
32 -33 34 -1 2 -3 -11 12 -13 50 0
32 -33 34 -1 2 -3 -11 -12 13 38 0
32 -33 34 -1 2 -3 -11 -12 -13 38 0
32 -33 34 -1 -2 3 11 12 13 35 0
32 -33 34 -1 -2 3 11 12 -13 38 0
32 -33 34 -1 -2 3 11 -12 13 38 0
32 -33 34 -1 -2 3 11 -12 -13 35 0
32 -33 34 -1 -2 3 -11 12 13 45 0
32 -33 34 -1 -2 3 -11 12 -13 38 0
32 -33 34 -1 -2 3 -11 -12 13 35 0
32 -33 34 -1 -2 3 -11 -12 -13 35 0
32 -33 34 -1 -2 -3 11 12 13 36 0
32 -33 34 -1 -2 -3 11 12 -13 35 0
32 -33 34 -1 -2 -3 11 -12 13 50 0
32 -33 34 -1 -2 -3 11 -12 -13 35 0
32 -33 34 -1 -2 -3 -11 12 13 50 0
32 -33 34 -1 -2 -3 -11 12 -13 35 0
32 -33 34 -1 -2 -3 -11 -12 13 35 0
32 -33 34 -1 -2 -3 -11 -12 -13 35 0
32 -33 -34 1 2 3 11 12 13 35 0
32 -33 -34 1 2 3 11 12 -13 38 0
32 -33 -34 1 2 3 11 -12 13 35 0
32 -33 -34 1 2 3 11 -12 -13 35 0
32 -33 -34 1 2 3 -11 12 13 35 0
32 -33 -34 1 2 3 -11 12 -13 38 0
32 -33 -34 1 2 3 -11 -12 13 35 0
32 -33 -34 1 2 3 -11 -12 -13 35 0
32 -33 -34 1 2 -3 11 12 13 35 0
32 -33 -34 1 2 -3 11 12 -13 38 0
32 -33 -34 1 2 -3 11 -12 13 38 0
32 -33 -34 1 2 -3 11 -12 -13 50 0
32 -33 -34 1 2 -3 -11 12 13 36 0
32 -33 -34 1 2 -3 -11 12 -13 49 0
32 -33 -34 1 2 -3 -11 -12 13 35 0
32 -33 -34 1 2 -3 -11 -12 -13 35 0
32 -33 -34 1 -2 3 11 12 13 50 0
32 -33 -34 1 -2 3 11 12 -13 50 0
32 -33 -34 1 -2 3 11 -12 13 35 0
32 -33 -34 1 -2 3 11 -12 -13 41 0
32 -33 -34 1 -2 3 -11 12 13 39 0
32 -33 -34 1 -2 3 -11 12 -13 35 0
32 -33 -34 1 -2 3 -11 -12 13 35 0
32 -33 -34 1 -2 3 -11 -12 -13 35 0
32 -33 -34 1 -2 -3 11 12 13 38 0
32 -33 -34 1 -2 -3 11 12 -13 38 0
32 -33 -34 1 -2 -3 11 -12 13 37 0
32 -33 -34 1 -2 -3 11 -12 -13 43 0
32 -33 -34 1 -2 -3 -11 12 13 42 0
32 -33 -34 1 -2 -3 -11 12 -13 45 0
32 -33 -34 1 -2 -3 -11 -12 13 38 0
32 -33 -34 1 -2 -3 -11 -12 -13 35 0
32 -33 -34 -1 2 3 11 12 13 35 0
32 -33 -34 -1 2 3 11 12 -13 50 0
32 -33 -34 -1 2 3 11 -12 13 42 0
32 -33 -34 -1 2 3 11 -12 -13 48 0
32 -33 -34 -1 2 3 -11 12 13 51 0
32 -33 -34 -1 2 3 -11 12 -13 50 0
32 -33 -34 -1 2 3 -11 -12 13 35 0
32 -33 -34 -1 2 3 -11 -12 -13 38 0
32 -33 -34 -1 2 -3 11 12 13 35 0
32 -33 -34 -1 2 -3 11 12 -13 36 0
32 -33 -34 -1 2 -3 11 -12 13 39 0
32 -33 -34 -1 2 -3 11 -12 -13 38 0
32 -33 -34 -1 2 -3 -11 12 13 38 0
32 -33 -34 -1 2 -3 -11 12 -13 50 0
32 -33 -34 -1 2 -3 -11 -12 13 38 0
32 -33 -34 -1 2 -3 -11 -12 -13 38 0
32 -33 -34 -1 -2 3 11 12 13 35 0
32 -33 -34 -1 -2 3 11 12 -13 36 0
32 -33 -34 -1 -2 3 11 -12 13 36 0
32 -33 -34 -1 -2 3 11 -12 -13 35 0
32 -33 -34 -1 -2 3 -11 12 13 45 0
32 -33 -34 -1 -2 3 -11 12 -13 38 0
32 -33 -34 -1 -2 3 -11 -12 13 35 0
32 -33 -34 -1 -2 3 -11 -12 -13 35 0
32 -33 -34 -1 -2 -3 11 12 13 38 0
32 -33 -34 -1 -2 -3 11 12 -13 35 0
32 -33 -34 -1 -2 -3 11 -12 13 47 0
32 -33 -34 -1 -2 -3 11 -12 -13 35 0
32 -33 -34 -1 -2 -3 -11 12 13 50 0
32 -33 -34 -1 -2 -3 -11 12 -13 35 0
32 -33 -34 -1 -2 -3 -11 -12 13 35 0
32 -33 -34 -1 -2 -3 -11 -12 -13 35 0
-32 33 34 1 2 3 11 12 13 35 0
-32 33 34 1 2 3 11 12 -13 38 0
-32 33 34 1 2 3 11 -12 13 35 0
-32 33 34 1 2 3 11 -12 -13 35 0
-32 33 34 1 2 3 -11 12 13 35 0
-32 33 34 1 2 3 -11 12 -13 36 0
-32 33 34 1 2 3 -11 -12 13 35 0
-32 33 34 1 2 3 -11 -12 -13 35 0
-32 33 34 1 2 -3 11 12 13 35 0
-32 33 34 1 2 -3 11 12 -13 38 0
-32 33 34 1 2 -3 11 -12 13 38 0
-32 33 34 1 2 -3 11 -12 -13 50 0
-32 33 34 1 2 -3 -11 12 13 38 0
-32 33 34 1 2 -3 -11 12 -13 44 0
-32 33 34 1 2 -3 -11 -12 13 35 0
-32 33 34 1 2 -3 -11 -12 -13 35 0
-32 33 34 1 -2 3 11 12 13 50 0
-32 33 34 1 -2 3 11 12 -13 50 0
-32 33 34 1 -2 3 11 -12 13 35 0
-32 33 34 1 -2 3 11 -12 -13 45 0
-32 33 34 1 -2 3 -11 12 13 50 0
-32 33 34 1 -2 3 -11 12 -13 35 0
-32 33 34 1 -2 3 -11 -12 13 35 0
-32 33 34 1 -2 3 -11 -12 -13 35 0
-32 33 34 1 -2 -3 11 12 13 38 0
-32 33 34 1 -2 -3 11 12 -13 38 0
-32 33 34 1 -2 -3 11 -12 13 37 0
-32 33 34 1 -2 -3 11 -12 -13 53 0
-32 33 34 1 -2 -3 -11 12 13 41 0
-32 33 34 1 -2 -3 -11 12 -13 55 0
-32 33 34 1 -2 -3 -11 -12 13 38 0
-32 33 34 1 -2 -3 -11 -12 -13 35 0
-32 33 34 -1 2 3 11 12 13 35 0
-32 33 34 -1 2 3 11 12 -13 50 0
-32 33 34 -1 2 3 11 -12 13 40 0
-32 33 34 -1 2 3 11 -12 -13 56 0
-32 33 34 -1 2 3 -11 12 13 58 0
-32 33 34 -1 2 3 -11 12 -13 47 0
-32 33 34 -1 2 3 -11 -12 13 35 0
-32 33 34 -1 2 3 -11 -12 -13 38 0
-32 33 34 -1 2 -3 11 12 13 35 0
-32 33 34 -1 2 -3 11 12 -13 38 0
-32 33 34 -1 2 -3 11 -12 13 50 0
-32 33 34 -1 2 -3 11 -12 -13 36 0
-32 33 34 -1 2 -3 -11 12 13 38 0
-32 33 34 -1 2 -3 -11 12 -13 47 0
-32 33 34 -1 2 -3 -11 -12 13 38 0
-32 33 34 -1 2 -3 -11 -12 -13 38 0
-32 33 34 -1 -2 3 11 12 13 35 0
-32 33 34 -1 -2 3 11 12 -13 38 0
-32 33 34 -1 -2 3 11 -12 13 38 0
-32 33 34 -1 -2 3 11 -12 -13 35 0
-32 33 34 -1 -2 3 -11 12 13 54 0
-32 33 34 -1 -2 3 -11 12 -13 38 0
-32 33 34 -1 -2 3 -11 -12 13 35 0
-32 33 34 -1 -2 3 -11 -12 -13 35 0
-32 33 34 -1 -2 -3 11 12 13 38 0
-32 33 34 -1 -2 -3 11 12 -13 35 0
-32 33 34 -1 -2 -3 11 -12 13 50 0
-32 33 34 -1 -2 -3 11 -12 -13 35 0
-32 33 34 -1 -2 -3 -11 12 13 50 0
-32 33 34 -1 -2 -3 -11 12 -13 35 0
-32 33 34 -1 -2 -3 -11 -12 13 35 0
-32 33 34 -1 -2 -3 -11 -12 -13 35 0
-32 33 -34 1 2 3 11 12 13 35 0
-32 33 -34 1 2 3 11 12 -13 38 0
-32 33 -34 1 2 3 11 -12 13 35 0
-32 33 -34 1 2 3 11 -12 -13 35 0
-32 33 -34 1 2 3 -11 12 13 35 0
-32 33 -34 1 2 3 -11 12 -13 38 0
-32 33 -34 1 2 3 -11 -12 13 35 0
-32 33 -34 1 2 3 -11 -12 -13 35 0
-32 33 -34 1 2 -3 11 12 13 35 0
-32 33 -34 1 2 -3 11 12 -13 38 0
-32 33 -34 1 2 -3 11 -12 13 38 0
-32 33 -34 1 2 -3 11 -12 -13 50 0
-32 33 -34 1 2 -3 -11 12 13 38 0
-32 33 -34 1 2 -3 -11 12 -13 37 0
-32 33 -34 1 2 -3 -11 -12 13 35 0
-32 33 -34 1 2 -3 -11 -12 -13 35 0
-32 33 -34 1 -2 3 11 12 13 50 0
-32 33 -34 1 -2 3 11 12 -13 50 0
-32 33 -34 1 -2 3 11 -12 13 35 0
-32 33 -34 1 -2 3 11 -12 -13 45 0
-32 33 -34 1 -2 3 -11 12 13 50 0
-32 33 -34 1 -2 3 -11 12 -13 35 0
-32 33 -34 1 -2 3 -11 -12 13 35 0
-32 33 -34 1 -2 3 -11 -12 -13 35 0
-32 33 -34 1 -2 -3 11 12 13 38 0
-32 33 -34 1 -2 -3 11 12 -13 38 0
-32 33 -34 1 -2 -3 11 -12 13 37 0
-32 33 -34 1 -2 -3 11 -12 -13 57 0
-32 33 -34 1 -2 -3 -11 12 13 35 0
-32 33 -34 1 -2 -3 -11 12 -13 54 0
-32 33 -34 1 -2 -3 -11 -12 13 36 0
-32 33 -34 1 -2 -3 -11 -12 -13 35 0
-32 33 -34 -1 2 3 11 12 13 35 0
-32 33 -34 -1 2 3 11 12 -13 50 0
-32 33 -34 -1 2 3 11 -12 13 40 0
-32 33 -34 -1 2 3 11 -12 -13 57 0
-32 33 -34 -1 2 3 -11 12 13 46 0
-32 33 -34 -1 2 3 -11 12 -13 47 0
-32 33 -34 -1 2 3 -11 -12 13 35 0
-32 33 -34 -1 2 3 -11 -12 -13 38 0
-32 33 -34 -1 2 -3 11 12 13 35 0
-32 33 -34 -1 2 -3 11 12 -13 38 0
-32 33 -34 -1 2 -3 11 -12 13 50 0
-32 33 -34 -1 2 -3 11 -12 -13 38 0
-32 33 -34 -1 2 -3 -11 12 13 36 0
-32 33 -34 -1 2 -3 -11 12 -13 47 0
-32 33 -34 -1 2 -3 -11 -12 13 38 0
-32 33 -34 -1 2 -3 -11 -12 -13 38 0
-32 33 -34 -1 -2 3 11 12 13 35 0
-32 33 -34 -1 -2 3 11 12 -13 38 0
-32 33 -34 -1 -2 3 11 -12 13 38 0
-32 33 -34 -1 -2 3 11 -12 -13 35 0
-32 33 -34 -1 -2 3 -11 12 13 41 0
-32 33 -34 -1 -2 3 -11 12 -13 36 0
-32 33 -34 -1 -2 3 -11 -12 13 35 0
-32 33 -34 -1 -2 3 -11 -12 -13 35 0
-32 33 -34 -1 -2 -3 11 12 13 38 0
-32 33 -34 -1 -2 -3 11 12 -13 35 0
-32 33 -34 -1 -2 -3 11 -12 13 47 0
-32 33 -34 -1 -2 -3 11 -12 -13 35 0
-32 33 -34 -1 -2 -3 -11 12 13 39 0
-32 33 -34 -1 -2 -3 -11 12 -13 35 0
-32 33 -34 -1 -2 -3 -11 -12 13 35 0
-32 33 -34 -1 -2 -3 -11 -12 -13 35 0
-32 -33 34 1 2 3 11 12 13 35 0
-32 -33 34 1 2 3 11 12 -13 38 0
-32 -33 34 1 2 3 11 -12 13 35 0
-32 -33 34 1 2 3 11 -12 -13 35 0
-32 -33 34 1 2 3 -11 12 13 35 0
-32 -33 34 1 2 3 -11 12 -13 38 0
-32 -33 34 1 2 3 -11 -12 13 35 0
-32 -33 34 1 2 3 -11 -12 -13 35 0
-32 -33 34 1 2 -3 11 12 13 35 0
-32 -33 34 1 2 -3 11 12 -13 38 0
-32 -33 34 1 2 -3 11 -12 13 38 0
-32 -33 34 1 2 -3 11 -12 -13 50 0
-32 -33 34 1 2 -3 -11 12 13 38 0
-32 -33 34 1 2 -3 -11 12 -13 37 0
-32 -33 34 1 2 -3 -11 -12 13 35 0
-32 -33 34 1 2 -3 -11 -12 -13 35 0
-32 -33 34 1 -2 3 11 12 13 50 0
-32 -33 34 1 -2 3 11 12 -13 50 0
-32 -33 34 1 -2 3 11 -12 13 35 0
-32 -33 34 1 -2 3 11 -12 -13 45 0
-32 -33 34 1 -2 3 -11 12 13 50 0
-32 -33 34 1 -2 3 -11 12 -13 35 0
-32 -33 34 1 -2 3 -11 -12 13 35 0
-32 -33 34 1 -2 3 -11 -12 -13 35 0
-32 -33 34 1 -2 -3 11 12 13 38 0
-32 -33 34 1 -2 -3 11 12 -13 38 0
-32 -33 34 1 -2 -3 11 -12 13 37 0
-32 -33 34 1 -2 -3 11 -12 -13 57 0
-32 -33 34 1 -2 -3 -11 12 13 40 0
-32 -33 34 1 -2 -3 -11 12 -13 45 0
-32 -33 34 1 -2 -3 -11 -12 13 38 0
-32 -33 34 1 -2 -3 -11 -12 -13 35 0
-32 -33 34 -1 2 3 11 12 13 35 0
-32 -33 34 -1 2 3 11 12 -13 50 0
-32 -33 34 -1 2 3 11 -12 13 40 0
-32 -33 34 -1 2 3 11 -12 -13 57 0
-32 -33 34 -1 2 3 -11 12 13 51 0
-32 -33 34 -1 2 3 -11 12 -13 50 0
-32 -33 34 -1 2 3 -11 -12 13 35 0
-32 -33 34 -1 2 3 -11 -12 -13 38 0
-32 -33 34 -1 2 -3 11 12 13 35 0
-32 -33 34 -1 2 -3 11 12 -13 38 0
-32 -33 34 -1 2 -3 11 -12 13 50 0
-32 -33 34 -1 2 -3 11 -12 -13 38 0
-32 -33 34 -1 2 -3 -11 12 13 38 0
-32 -33 34 -1 2 -3 -11 12 -13 50 0
-32 -33 34 -1 2 -3 -11 -12 13 36 0
-32 -33 34 -1 2 -3 -11 -12 -13 38 0
-32 -33 34 -1 -2 3 11 12 13 35 0
-32 -33 34 -1 -2 3 11 12 -13 38 0
-32 -33 34 -1 -2 3 11 -12 13 38 0
-32 -33 34 -1 -2 3 11 -12 -13 35 0
-32 -33 34 -1 -2 3 -11 12 13 54 0
-32 -33 34 -1 -2 3 -11 12 -13 38 0
-32 -33 34 -1 -2 3 -11 -12 13 35 0
-32 -33 34 -1 -2 3 -11 -12 -13 35 0
-32 -33 34 -1 -2 -3 11 12 13 38 0
-32 -33 34 -1 -2 -3 11 12 -13 35 0
-32 -33 34 -1 -2 -3 11 -12 13 50 0
-32 -33 34 -1 -2 -3 11 -12 -13 35 0
-32 -33 34 -1 -2 -3 -11 12 13 50 0
-32 -33 34 -1 -2 -3 -11 12 -13 35 0
-32 -33 34 -1 -2 -3 -11 -12 13 35 0
-32 -33 34 -1 -2 -3 -11 -12 -13 35 0
-32 -33 -34 1 2 3 11 12 13 35 0
-32 -33 -34 1 2 3 11 12 -13 38 0
-32 -33 -34 1 2 3 11 -12 13 35 0
-32 -33 -34 1 2 3 11 -12 -13 35 0
-32 -33 -34 1 2 3 -11 12 13 35 0
-32 -33 -34 1 2 3 -11 12 -13 38 0
-32 -33 -34 1 2 3 -11 -12 13 35 0
-32 -33 -34 1 2 3 -11 -12 -13 35 0
-32 -33 -34 1 2 -3 11 12 13 35 0
-32 -33 -34 1 2 -3 11 12 -13 38 0
-32 -33 -34 1 2 -3 11 -12 13 38 0
-32 -33 -34 1 2 -3 11 -12 -13 50 0
-32 -33 -34 1 2 -3 -11 12 13 38 0
-32 -33 -34 1 2 -3 -11 12 -13 37 0
-32 -33 -34 1 2 -3 -11 -12 13 35 0
-32 -33 -34 1 2 -3 -11 -12 -13 35 0
-32 -33 -34 1 -2 3 11 12 13 50 0
-32 -33 -34 1 -2 3 11 12 -13 50 0
-32 -33 -34 1 -2 3 11 -12 13 35 0
-32 -33 -34 1 -2 3 11 -12 -13 45 0
-32 -33 -34 1 -2 3 -11 12 13 50 0
-32 -33 -34 1 -2 3 -11 12 -13 35 0
-32 -33 -34 1 -2 3 -11 -12 13 35 0
-32 -33 -34 1 -2 3 -11 -12 -13 35 0
-32 -33 -34 1 -2 -3 11 12 13 38 0
-32 -33 -34 1 -2 -3 11 12 -13 38 0
-32 -33 -34 1 -2 -3 11 -12 13 37 0
-32 -33 -34 1 -2 -3 11 -12 -13 57 0
-32 -33 -34 1 -2 -3 -11 12 13 40 0
-32 -33 -34 1 -2 -3 -11 12 -13 45 0
-32 -33 -34 1 -2 -3 -11 -12 13 38 0
-32 -33 -34 1 -2 -3 -11 -12 -13 35 0
-32 -33 -34 -1 2 3 11 12 13 35 0
-32 -33 -34 -1 2 3 11 12 -13 50 0
-32 -33 -34 -1 2 3 11 -12 13 40 0
-32 -33 -34 -1 2 3 11 -12 -13 57 0
-32 -33 -34 -1 2 3 -11 12 13 51 0
-32 -33 -34 -1 2 3 -11 12 -13 50 0
-32 -33 -34 -1 2 3 -11 -12 13 35 0
-32 -33 -34 -1 2 3 -11 -12 -13 36 0
-32 -33 -34 -1 2 -3 11 12 13 35 0
-32 -33 -34 -1 2 -3 11 12 -13 38 0
-32 -33 -34 -1 2 -3 11 -12 13 50 0
-32 -33 -34 -1 2 -3 11 -12 -13 38 0
-32 -33 -34 -1 2 -3 -11 12 13 38 0
-32 -33 -34 -1 2 -3 -11 12 -13 50 0
-32 -33 -34 -1 2 -3 -11 -12 13 38 0
-32 -33 -34 -1 2 -3 -11 -12 -13 36 0
-32 -33 -34 -1 -2 3 11 12 13 35 0
-32 -33 -34 -1 -2 3 11 12 -13 38 0
-32 -33 -34 -1 -2 3 11 -12 13 38 0
-32 -33 -34 -1 -2 3 11 -12 -13 35 0
-32 -33 -34 -1 -2 3 -11 12 13 45 0
-32 -33 -34 -1 -2 3 -11 12 -13 38 0
-32 -33 -34 -1 -2 3 -11 -12 13 35 0
-32 -33 -34 -1 -2 3 -11 -12 -13 35 0
-32 -33 -34 -1 -2 -3 11 12 13 38 0
-32 -33 -34 -1 -2 -3 11 12 -13 35 0
-32 -33 -34 -1 -2 -3 11 -12 13 50 0
-32 -33 -34 -1 -2 -3 11 -12 -13 35 0
-32 -33 -34 -1 -2 -3 -11 12 13 50 0
-32 -33 -34 -1 -2 -3 -11 12 -13 35 0
-32 -33 -34 -1 -2 -3 -11 -12 13 35 0
-32 -33 -34 -1 -2 -3 -11 -12 -13 35 0
60 61 62 21 22 23 32 33 34 63 0
60 61 62 21 22 23 32 33 -34 63 0
60 61 62 21 22 23 32 -33 34 63 0
60 61 62 21 22 23 32 -33 -34 82 0
60 61 62 21 22 23 -32 33 34 65 0
60 61 62 21 22 23 -32 33 -34 63 0
60 61 62 21 22 23 -32 -33 34 63 0
60 61 62 21 22 23 -32 -33 -34 63 0
60 61 62 21 22 -23 32 33 34 63 0
60 61 62 21 22 -23 32 33 -34 64 0
60 61 62 21 22 -23 32 -33 34 65 0
60 61 62 21 22 -23 32 -33 -34 82 0
60 61 62 21 22 -23 -32 33 34 83 0
60 61 62 21 22 -23 -32 33 -34 82 0
60 61 62 21 22 -23 -32 -33 34 63 0
60 61 62 21 22 -23 -32 -33 -34 63 0
60 61 62 21 -22 23 32 33 34 64 0
60 61 62 21 -22 23 32 33 -34 65 0
60 61 62 21 -22 23 32 -33 34 65 0
60 61 62 21 -22 23 32 -33 -34 75 0
60 61 62 21 -22 23 -32 33 34 83 0
60 61 62 21 -22 23 -32 33 -34 76 0
60 61 62 21 -22 23 -32 -33 34 63 0
60 61 62 21 -22 23 -32 -33 -34 65 0
60 61 62 21 -22 -23 32 33 34 66 0
60 61 62 21 -22 -23 32 33 -34 82 0
60 61 62 21 -22 -23 32 -33 34 84 0
60 61 62 21 -22 -23 32 -33 -34 85 0
60 61 62 21 -22 -23 -32 33 34 65 0
60 61 62 21 -22 -23 -32 33 -34 76 0
60 61 62 21 -22 -23 -32 -33 34 65 0
60 61 62 21 -22 -23 -32 -33 -34 63 0
60 61 62 -21 22 23 32 33 34 63 0
60 61 62 -21 22 23 32 33 -34 82 0
60 61 62 -21 22 23 32 -33 34 76 0
60 61 62 -21 22 23 32 -33 -34 76 0
60 61 62 -21 22 23 -32 33 34 77 0
60 61 62 -21 22 23 -32 33 -34 65 0
60 61 62 -21 22 23 -32 -33 34 63 0
60 61 62 -21 22 23 -32 -33 -34 63 0
60 61 62 -21 22 -23 32 33 34 63 0
60 61 62 -21 22 -23 32 33 -34 65 0
60 61 62 -21 22 -23 32 -33 34 65 0
60 61 62 -21 22 -23 32 -33 -34 72 0
60 61 62 -21 22 -23 -32 33 34 76 0
60 61 62 -21 22 -23 -32 33 -34 82 0
60 61 62 -21 22 -23 -32 -33 34 65 0
60 61 62 -21 22 -23 -32 -33 -34 65 0
60 61 62 -21 -22 23 32 33 34 63 0
60 61 62 -21 -22 23 32 33 -34 82 0
60 61 62 -21 -22 23 32 -33 34 65 0
60 61 62 -21 -22 23 32 -33 -34 63 0
60 61 62 -21 -22 23 -32 33 34 65 0
60 61 62 -21 -22 23 -32 33 -34 63 0
60 61 62 -21 -22 23 -32 -33 34 63 0
60 61 62 -21 -22 23 -32 -33 -34 63 0
60 61 62 -21 -22 -23 32 33 34 63 0
60 61 62 -21 -22 -23 32 33 -34 63 0
60 61 62 -21 -22 -23 32 -33 34 63 0
60 61 62 -21 -22 -23 32 -33 -34 63 0
60 61 62 -21 -22 -23 -32 33 34 65 0
60 61 62 -21 -22 -23 -32 33 -34 63 0
60 61 62 -21 -22 -23 -32 -33 34 63 0
60 61 62 -21 -22 -23 -32 -33 -34 63 0
60 61 -62 21 22 23 32 33 34 63 0
60 61 -62 21 22 23 32 33 -34 63 0
60 61 -62 21 22 23 32 -33 34 63 0
60 61 -62 21 22 23 32 -33 -34 82 0
60 61 -62 21 22 23 -32 33 34 65 0
60 61 -62 21 22 23 -32 33 -34 63 0
60 61 -62 21 22 23 -32 -33 34 63 0
60 61 -62 21 22 23 -32 -33 -34 63 0
60 61 -62 21 22 -23 32 33 34 63 0
60 61 -62 21 22 -23 32 33 -34 65 0
60 61 -62 21 22 -23 32 -33 34 65 0
60 61 -62 21 22 -23 32 -33 -34 82 0
60 61 -62 21 22 -23 -32 33 34 83 0
60 61 -62 21 22 -23 -32 33 -34 82 0
60 61 -62 21 22 -23 -32 -33 34 63 0
60 61 -62 21 22 -23 -32 -33 -34 63 0
60 61 -62 21 -22 23 32 33 34 65 0
60 61 -62 21 -22 23 32 33 -34 64 0
60 61 -62 21 -22 23 32 -33 34 65 0
60 61 -62 21 -22 23 32 -33 -34 75 0
60 61 -62 21 -22 23 -32 33 34 83 0
60 61 -62 21 -22 23 -32 33 -34 76 0
60 61 -62 21 -22 23 -32 -33 34 63 0
60 61 -62 21 -22 23 -32 -33 -34 65 0
60 61 -62 21 -22 -23 32 33 34 83 0
60 61 -62 21 -22 -23 32 33 -34 69 0
60 61 -62 21 -22 -23 32 -33 34 84 0
60 61 -62 21 -22 -23 32 -33 -34 85 0
60 61 -62 21 -22 -23 -32 33 34 65 0
60 61 -62 21 -22 -23 -32 33 -34 76 0
60 61 -62 21 -22 -23 -32 -33 34 65 0
60 61 -62 21 -22 -23 -32 -33 -34 63 0
60 61 -62 -21 22 23 32 33 34 63 0
60 61 -62 -21 22 23 32 33 -34 69 0
60 61 -62 -21 22 23 32 -33 34 76 0
60 61 -62 -21 22 23 32 -33 -34 76 0
60 61 -62 -21 22 23 -32 33 34 77 0
60 61 -62 -21 22 23 -32 33 -34 65 0
60 61 -62 -21 22 23 -32 -33 34 63 0
60 61 -62 -21 22 23 -32 -33 -34 63 0
60 61 -62 -21 22 -23 32 33 34 63 0
60 61 -62 -21 22 -23 32 33 -34 65 0
60 61 -62 -21 22 -23 32 -33 34 65 0
60 61 -62 -21 22 -23 32 -33 -34 72 0
60 61 -62 -21 22 -23 -32 33 34 76 0
60 61 -62 -21 22 -23 -32 33 -34 82 0
60 61 -62 -21 22 -23 -32 -33 34 65 0
60 61 -62 -21 22 -23 -32 -33 -34 65 0
60 61 -62 -21 -22 23 32 33 34 63 0
60 61 -62 -21 -22 23 32 33 -34 82 0
60 61 -62 -21 -22 23 32 -33 34 65 0
60 61 -62 -21 -22 23 32 -33 -34 63 0
60 61 -62 -21 -22 23 -32 33 34 65 0
60 61 -62 -21 -22 23 -32 33 -34 63 0
60 61 -62 -21 -22 23 -32 -33 34 63 0
60 61 -62 -21 -22 23 -32 -33 -34 63 0
60 61 -62 -21 -22 -23 32 33 34 63 0
60 61 -62 -21 -22 -23 32 33 -34 63 0
60 61 -62 -21 -22 -23 32 -33 34 63 0
60 61 -62 -21 -22 -23 32 -33 -34 63 0
60 61 -62 -21 -22 -23 -32 33 34 65 0
60 61 -62 -21 -22 -23 -32 33 -34 63 0
60 61 -62 -21 -22 -23 -32 -33 34 63 0
60 61 -62 -21 -22 -23 -32 -33 -34 63 0
60 -61 62 21 22 23 32 33 34 63 0
60 -61 62 21 22 23 32 33 -34 63 0
60 -61 62 21 22 23 32 -33 34 63 0
60 -61 62 21 22 23 32 -33 -34 69 0
60 -61 62 21 22 23 -32 33 34 65 0
60 -61 62 21 22 23 -32 33 -34 63 0
60 -61 62 21 22 23 -32 -33 34 63 0
60 -61 62 21 22 23 -32 -33 -34 63 0
60 -61 62 21 22 -23 32 33 34 63 0
60 -61 62 21 22 -23 32 33 -34 65 0
60 -61 62 21 22 -23 32 -33 34 64 0
60 -61 62 21 22 -23 32 -33 -34 79 0
60 -61 62 21 22 -23 -32 33 34 83 0
60 -61 62 21 22 -23 -32 33 -34 82 0
60 -61 62 21 22 -23 -32 -33 34 63 0
60 -61 62 21 22 -23 -32 -33 -34 63 0
60 -61 62 21 -22 23 32 33 34 65 0
60 -61 62 21 -22 23 32 33 -34 65 0
60 -61 62 21 -22 23 32 -33 34 64 0
60 -61 62 21 -22 23 32 -33 -34 79 0
60 -61 62 21 -22 23 -32 33 34 83 0
60 -61 62 21 -22 23 -32 33 -34 76 0
60 -61 62 21 -22 23 -32 -33 34 63 0
60 -61 62 21 -22 23 -32 -33 -34 65 0
60 -61 62 21 -22 -23 32 33 34 83 0
60 -61 62 21 -22 -23 32 33 -34 82 0
60 -61 62 21 -22 -23 32 -33 34 67 0
60 -61 62 21 -22 -23 32 -33 -34 85 0
60 -61 62 21 -22 -23 -32 33 34 65 0
60 -61 62 21 -22 -23 -32 33 -34 76 0
60 -61 62 21 -22 -23 -32 -33 34 65 0
60 -61 62 21 -22 -23 -32 -33 -34 63 0
60 -61 62 -21 22 23 32 33 34 63 0
60 -61 62 -21 22 23 32 33 -34 82 0
60 -61 62 -21 22 23 32 -33 34 86 0
60 -61 62 -21 22 23 32 -33 -34 76 0
60 -61 62 -21 22 23 -32 33 34 77 0
60 -61 62 -21 22 23 -32 33 -34 65 0
60 -61 62 -21 22 23 -32 -33 34 63 0
60 -61 62 -21 22 23 -32 -33 -34 63 0
60 -61 62 -21 22 -23 32 33 34 63 0
60 -61 62 -21 22 -23 32 33 -34 64 0
60 -61 62 -21 22 -23 32 -33 34 64 0
60 -61 62 -21 22 -23 32 -33 -34 72 0
60 -61 62 -21 22 -23 -32 33 34 76 0
60 -61 62 -21 22 -23 -32 33 -34 82 0
60 -61 62 -21 22 -23 -32 -33 34 65 0
60 -61 62 -21 22 -23 -32 -33 -34 65 0
60 -61 62 -21 -22 23 32 33 34 63 0
60 -61 62 -21 -22 23 32 33 -34 69 0
60 -61 62 -21 -22 23 32 -33 34 64 0
60 -61 62 -21 -22 23 32 -33 -34 63 0
60 -61 62 -21 -22 23 -32 33 34 65 0
60 -61 62 -21 -22 23 -32 33 -34 63 0
60 -61 62 -21 -22 23 -32 -33 34 63 0
60 -61 62 -21 -22 23 -32 -33 -34 63 0
60 -61 62 -21 -22 -23 32 33 34 63 0
60 -61 62 -21 -22 -23 32 33 -34 63 0
60 -61 62 -21 -22 -23 32 -33 34 63 0
60 -61 62 -21 -22 -23 32 -33 -34 63 0
60 -61 62 -21 -22 -23 -32 33 34 65 0
60 -61 62 -21 -22 -23 -32 33 -34 63 0
60 -61 62 -21 -22 -23 -32 -33 34 63 0
60 -61 62 -21 -22 -23 -32 -33 -34 63 0
60 -61 -62 21 22 23 32 33 34 63 0
60 -61 -62 21 22 23 32 33 -34 63 0
60 -61 -62 21 22 23 32 -33 34 63 0
60 -61 -62 21 22 23 32 -33 -34 82 0
60 -61 -62 21 22 23 -32 33 34 65 0
60 -61 -62 21 22 23 -32 33 -34 63 0
60 -61 -62 21 22 23 -32 -33 34 63 0
60 -61 -62 21 22 23 -32 -33 -34 63 0
60 -61 -62 21 22 -23 32 33 34 63 0
60 -61 -62 21 22 -23 32 33 -34 65 0
60 -61 -62 21 22 -23 32 -33 34 65 0
60 -61 -62 21 22 -23 32 -33 -34 79 0
60 -61 -62 21 22 -23 -32 33 34 71 0
60 -61 -62 21 22 -23 -32 33 -34 82 0
60 -61 -62 21 22 -23 -32 -33 34 63 0
60 -61 -62 21 22 -23 -32 -33 -34 63 0
60 -61 -62 21 -22 23 32 33 34 65 0
60 -61 -62 21 -22 23 32 33 -34 65 0
60 -61 -62 21 -22 23 32 -33 34 65 0
60 -61 -62 21 -22 23 32 -33 -34 68 0
60 -61 -62 21 -22 23 -32 33 34 70 0
60 -61 -62 21 -22 23 -32 33 -34 76 0
60 -61 -62 21 -22 23 -32 -33 34 63 0
60 -61 -62 21 -22 23 -32 -33 -34 65 0
60 -61 -62 21 -22 -23 32 33 34 83 0
60 -61 -62 21 -22 -23 32 33 -34 82 0
60 -61 -62 21 -22 -23 32 -33 34 84 0
60 -61 -62 21 -22 -23 32 -33 -34 74 0
60 -61 -62 21 -22 -23 -32 33 34 65 0
60 -61 -62 21 -22 -23 -32 33 -34 76 0
60 -61 -62 21 -22 -23 -32 -33 34 65 0
60 -61 -62 21 -22 -23 -32 -33 -34 63 0
60 -61 -62 -21 22 23 32 33 34 63 0
60 -61 -62 -21 22 23 32 33 -34 82 0
60 -61 -62 -21 22 23 32 -33 34 88 0
60 -61 -62 -21 22 23 32 -33 -34 73 0
60 -61 -62 -21 22 23 -32 33 34 77 0
60 -61 -62 -21 22 23 -32 33 -34 65 0
60 -61 -62 -21 22 23 -32 -33 34 63 0
60 -61 -62 -21 22 23 -32 -33 -34 63 0
60 -61 -62 -21 22 -23 32 33 34 63 0
60 -61 -62 -21 22 -23 32 33 -34 65 0
60 -61 -62 -21 22 -23 32 -33 34 65 0
60 -61 -62 -21 22 -23 32 -33 -34 87 0
60 -61 -62 -21 22 -23 -32 33 34 76 0
60 -61 -62 -21 22 -23 -32 33 -34 82 0
60 -61 -62 -21 22 -23 -32 -33 34 65 0
60 -61 -62 -21 22 -23 -32 -33 -34 65 0
60 -61 -62 -21 -22 23 32 33 34 63 0
60 -61 -62 -21 -22 23 32 33 -34 82 0
60 -61 -62 -21 -22 23 32 -33 34 65 0
60 -61 -62 -21 -22 23 32 -33 -34 63 0
60 -61 -62 -21 -22 23 -32 33 34 65 0
60 -61 -62 -21 -22 23 -32 33 -34 63 0
60 -61 -62 -21 -22 23 -32 -33 34 63 0
60 -61 -62 -21 -22 23 -32 -33 -34 63 0
60 -61 -62 -21 -22 -23 32 33 34 63 0
60 -61 -62 -21 -22 -23 32 33 -34 63 0
60 -61 -62 -21 -22 -23 32 -33 34 63 0
60 -61 -62 -21 -22 -23 32 -33 -34 63 0
60 -61 -62 -21 -22 -23 -32 33 34 65 0
60 -61 -62 -21 -22 -23 -32 33 -34 63 0
60 -61 -62 -21 -22 -23 -32 -33 34 63 0
60 -61 -62 -21 -22 -23 -32 -33 -34 63 0
-60 61 62 21 22 23 32 33 34 63 0
-60 61 62 21 22 23 32 33 -34 63 0
-60 61 62 21 22 23 32 -33 34 63 0
-60 61 62 21 22 23 32 -33 -34 82 0
-60 61 62 21 22 23 -32 33 34 64 0
-60 61 62 21 22 23 -32 33 -34 63 0
-60 61 62 21 22 23 -32 -33 34 63 0
-60 61 62 21 22 23 -32 -33 -34 63 0
-60 61 62 21 22 -23 32 33 34 63 0
-60 61 62 21 22 -23 32 33 -34 65 0
-60 61 62 21 22 -23 32 -33 34 65 0
-60 61 62 21 22 -23 32 -33 -34 82 0
-60 61 62 21 22 -23 -32 33 34 70 0
-60 61 62 21 22 -23 -32 33 -34 82 0
-60 61 62 21 22 -23 -32 -33 34 63 0
-60 61 62 21 22 -23 -32 -33 -34 63 0
-60 61 62 21 -22 23 32 33 34 65 0
-60 61 62 21 -22 23 32 33 -34 65 0
-60 61 62 21 -22 23 32 -33 34 65 0
-60 61 62 21 -22 23 32 -33 -34 75 0
-60 61 62 21 -22 23 -32 33 34 71 0
-60 61 62 21 -22 23 -32 33 -34 73 0
-60 61 62 21 -22 23 -32 -33 34 63 0
-60 61 62 21 -22 23 -32 -33 -34 65 0
-60 61 62 21 -22 -23 32 33 34 83 0
-60 61 62 21 -22 -23 32 33 -34 82 0
-60 61 62 21 -22 -23 32 -33 34 84 0
-60 61 62 21 -22 -23 32 -33 -34 65 0
-60 61 62 21 -22 -23 -32 33 34 64 0
-60 61 62 21 -22 -23 -32 33 -34 76 0
-60 61 62 21 -22 -23 -32 -33 34 65 0
-60 61 62 21 -22 -23 -32 -33 -34 63 0
-60 61 62 -21 22 23 32 33 34 63 0
-60 61 62 -21 22 23 32 33 -34 82 0
-60 61 62 -21 22 23 32 -33 34 76 0
-60 61 62 -21 22 23 32 -33 -34 73 0
-60 61 62 -21 22 23 -32 33 34 80 0
-60 61 62 -21 22 23 -32 33 -34 65 0
-60 61 62 -21 22 23 -32 -33 34 63 0
-60 61 62 -21 22 23 -32 -33 -34 63 0
-60 61 62 -21 22 -23 32 33 34 63 0
-60 61 62 -21 22 -23 32 33 -34 65 0
-60 61 62 -21 22 -23 32 -33 34 65 0
-60 61 62 -21 22 -23 32 -33 -34 81 0
-60 61 62 -21 22 -23 -32 33 34 73 0
-60 61 62 -21 22 -23 -32 33 -34 82 0
-60 61 62 -21 22 -23 -32 -33 34 65 0
-60 61 62 -21 22 -23 -32 -33 -34 65 0
-60 61 62 -21 -22 23 32 33 34 63 0
-60 61 62 -21 -22 23 32 33 -34 82 0
-60 61 62 -21 -22 23 32 -33 34 65 0
-60 61 62 -21 -22 23 32 -33 -34 63 0
-60 61 62 -21 -22 23 -32 33 34 65 0
-60 61 62 -21 -22 23 -32 33 -34 63 0
-60 61 62 -21 -22 23 -32 -33 34 63 0
-60 61 62 -21 -22 23 -32 -33 -34 63 0
-60 61 62 -21 -22 -23 32 33 34 63 0
-60 61 62 -21 -22 -23 32 33 -34 63 0
-60 61 62 -21 -22 -23 32 -33 34 63 0
-60 61 62 -21 -22 -23 32 -33 -34 63 0
-60 61 62 -21 -22 -23 -32 33 34 65 0
-60 61 62 -21 -22 -23 -32 33 -34 63 0
-60 61 62 -21 -22 -23 -32 -33 34 63 0
-60 61 62 -21 -22 -23 -32 -33 -34 63 0
-60 61 -62 21 22 23 32 33 34 63 0
-60 61 -62 21 22 23 32 33 -34 63 0
-60 61 -62 21 22 23 32 -33 34 63 0
-60 61 -62 21 22 23 32 -33 -34 82 0
-60 61 -62 21 22 23 -32 33 34 65 0
-60 61 -62 21 22 23 -32 33 -34 63 0
-60 61 -62 21 22 23 -32 -33 34 63 0
-60 61 -62 21 22 23 -32 -33 -34 63 0
-60 61 -62 21 22 -23 32 33 34 63 0
-60 61 -62 21 22 -23 32 33 -34 65 0
-60 61 -62 21 22 -23 32 -33 34 65 0
-60 61 -62 21 22 -23 32 -33 -34 82 0
-60 61 -62 21 22 -23 -32 33 34 83 0
-60 61 -62 21 22 -23 -32 33 -34 69 0
-60 61 -62 21 22 -23 -32 -33 34 63 0
-60 61 -62 21 22 -23 -32 -33 -34 63 0
-60 61 -62 21 -22 23 32 33 34 65 0
-60 61 -62 21 -22 23 32 33 -34 65 0
-60 61 -62 21 -22 23 32 -33 34 65 0
-60 61 -62 21 -22 23 32 -33 -34 75 0
-60 61 -62 21 -22 23 -32 33 34 83 0
-60 61 -62 21 -22 23 -32 33 -34 73 0
-60 61 -62 21 -22 23 -32 -33 34 63 0
-60 61 -62 21 -22 23 -32 -33 -34 65 0
-60 61 -62 21 -22 -23 32 33 34 83 0
-60 61 -62 21 -22 -23 32 33 -34 82 0
-60 61 -62 21 -22 -23 32 -33 34 84 0
-60 61 -62 21 -22 -23 32 -33 -34 85 0
-60 61 -62 21 -22 -23 -32 33 34 65 0
-60 61 -62 21 -22 -23 -32 33 -34 78 0
-60 61 -62 21 -22 -23 -32 -33 34 65 0
-60 61 -62 21 -22 -23 -32 -33 -34 63 0
-60 61 -62 -21 22 23 32 33 34 63 0
-60 61 -62 -21 22 23 32 33 -34 82 0
-60 61 -62 -21 22 23 32 -33 34 76 0
-60 61 -62 -21 22 23 32 -33 -34 76 0
-60 61 -62 -21 22 23 -32 33 34 73 0
-60 61 -62 -21 22 23 -32 33 -34 65 0
-60 61 -62 -21 22 23 -32 -33 34 63 0
-60 61 -62 -21 22 23 -32 -33 -34 63 0
-60 61 -62 -21 22 -23 32 33 34 63 0
-60 61 -62 -21 22 -23 32 33 -34 65 0
-60 61 -62 -21 22 -23 32 -33 34 65 0
-60 61 -62 -21 22 -23 32 -33 -34 72 0
-60 61 -62 -21 22 -23 -32 33 34 73 0
-60 61 -62 -21 22 -23 -32 33 -34 69 0
-60 61 -62 -21 22 -23 -32 -33 34 65 0
-60 61 -62 -21 22 -23 -32 -33 -34 65 0
-60 61 -62 -21 -22 23 32 33 34 63 0
-60 61 -62 -21 -22 23 32 33 -34 82 0
-60 61 -62 -21 -22 23 32 -33 34 65 0
-60 61 -62 -21 -22 23 32 -33 -34 63 0
-60 61 -62 -21 -22 23 -32 33 34 64 0
-60 61 -62 -21 -22 23 -32 33 -34 63 0
-60 61 -62 -21 -22 23 -32 -33 34 63 0
-60 61 -62 -21 -22 23 -32 -33 -34 63 0
-60 61 -62 -21 -22 -23 32 33 34 63 0
-60 61 -62 -21 -22 -23 32 33 -34 63 0
-60 61 -62 -21 -22 -23 32 -33 34 63 0
-60 61 -62 -21 -22 -23 32 -33 -34 63 0
-60 61 -62 -21 -22 -23 -32 33 34 64 0
-60 61 -62 -21 -22 -23 -32 33 -34 63 0
-60 61 -62 -21 -22 -23 -32 -33 34 63 0
-60 61 -62 -21 -22 -23 -32 -33 -34 63 0
-60 -61 62 21 22 23 32 33 34 63 0
-60 -61 62 21 22 23 32 33 -34 63 0
-60 -61 62 21 22 23 32 -33 34 63 0
-60 -61 62 21 22 23 32 -33 -34 82 0
-60 -61 62 21 22 23 -32 33 34 65 0
-60 -61 62 21 22 23 -32 33 -34 63 0
-60 -61 62 21 22 23 -32 -33 34 63 0
-60 -61 62 21 22 23 -32 -33 -34 63 0
-60 -61 62 21 22 -23 32 33 34 63 0
-60 -61 62 21 22 -23 32 33 -34 65 0
-60 -61 62 21 22 -23 32 -33 34 65 0
-60 -61 62 21 22 -23 32 -33 -34 82 0
-60 -61 62 21 22 -23 -32 33 34 83 0
-60 -61 62 21 22 -23 -32 33 -34 82 0
-60 -61 62 21 22 -23 -32 -33 34 63 0
-60 -61 62 21 22 -23 -32 -33 -34 63 0
-60 -61 62 21 -22 23 32 33 34 65 0
-60 -61 62 21 -22 23 32 33 -34 65 0
-60 -61 62 21 -22 23 32 -33 34 65 0
-60 -61 62 21 -22 23 32 -33 -34 75 0
-60 -61 62 21 -22 23 -32 33 34 83 0
-60 -61 62 21 -22 23 -32 33 -34 76 0
-60 -61 62 21 -22 23 -32 -33 34 63 0
-60 -61 62 21 -22 23 -32 -33 -34 65 0
-60 -61 62 21 -22 -23 32 33 34 83 0
-60 -61 62 21 -22 -23 32 33 -34 82 0
-60 -61 62 21 -22 -23 32 -33 34 84 0
-60 -61 62 21 -22 -23 32 -33 -34 85 0
-60 -61 62 21 -22 -23 -32 33 34 65 0
-60 -61 62 21 -22 -23 -32 33 -34 76 0
-60 -61 62 21 -22 -23 -32 -33 34 65 0
-60 -61 62 21 -22 -23 -32 -33 -34 63 0
-60 -61 62 -21 22 23 32 33 34 63 0
-60 -61 62 -21 22 23 32 33 -34 82 0
-60 -61 62 -21 22 23 32 -33 34 76 0
-60 -61 62 -21 22 23 32 -33 -34 76 0
-60 -61 62 -21 22 23 -32 33 34 77 0
-60 -61 62 -21 22 23 -32 33 -34 64 0
-60 -61 62 -21 22 23 -32 -33 34 63 0
-60 -61 62 -21 22 23 -32 -33 -34 63 0
-60 -61 62 -21 22 -23 32 33 34 63 0
-60 -61 62 -21 22 -23 32 33 -34 65 0
-60 -61 62 -21 22 -23 32 -33 34 65 0
-60 -61 62 -21 22 -23 32 -33 -34 72 0
-60 -61 62 -21 22 -23 -32 33 34 76 0
-60 -61 62 -21 22 -23 -32 33 -34 82 0
-60 -61 62 -21 22 -23 -32 -33 34 64 0
-60 -61 62 -21 22 -23 -32 -33 -34 65 0
-60 -61 62 -21 -22 23 32 33 34 63 0
-60 -61 62 -21 -22 23 32 33 -34 82 0
-60 -61 62 -21 -22 23 32 -33 34 65 0
-60 -61 62 -21 -22 23 32 -33 -34 63 0
-60 -61 62 -21 -22 23 -32 33 34 65 0
-60 -61 62 -21 -22 23 -32 33 -34 63 0
-60 -61 62 -21 -22 23 -32 -33 34 63 0
-60 -61 62 -21 -22 23 -32 -33 -34 63 0
-60 -61 62 -21 -22 -23 32 33 34 63 0
-60 -61 62 -21 -22 -23 32 33 -34 63 0
-60 -61 62 -21 -22 -23 32 -33 34 63 0
-60 -61 62 -21 -22 -23 32 -33 -34 63 0
-60 -61 62 -21 -22 -23 -32 33 34 65 0
-60 -61 62 -21 -22 -23 -32 33 -34 63 0
-60 -61 62 -21 -22 -23 -32 -33 34 63 0
-60 -61 62 -21 -22 -23 -32 -33 -34 63 0
-60 -61 -62 21 22 23 32 33 34 63 0
-60 -61 -62 21 22 23 32 33 -34 63 0
-60 -61 -62 21 22 23 32 -33 34 63 0
-60 -61 -62 21 22 23 32 -33 -34 82 0
-60 -61 -62 21 22 23 -32 33 34 65 0
-60 -61 -62 21 22 23 -32 33 -34 63 0
-60 -61 -62 21 22 23 -32 -33 34 63 0
-60 -61 -62 21 22 23 -32 -33 -34 63 0
-60 -61 -62 21 22 -23 32 33 34 63 0
-60 -61 -62 21 22 -23 32 33 -34 65 0
-60 -61 -62 21 22 -23 32 -33 34 65 0
-60 -61 -62 21 22 -23 32 -33 -34 82 0
-60 -61 -62 21 22 -23 -32 33 34 83 0
-60 -61 -62 21 22 -23 -32 33 -34 82 0
-60 -61 -62 21 22 -23 -32 -33 34 63 0
-60 -61 -62 21 22 -23 -32 -33 -34 63 0
-60 -61 -62 21 -22 23 32 33 34 65 0
-60 -61 -62 21 -22 23 32 33 -34 65 0
-60 -61 -62 21 -22 23 32 -33 34 65 0
-60 -61 -62 21 -22 23 32 -33 -34 75 0
-60 -61 -62 21 -22 23 -32 33 34 83 0
-60 -61 -62 21 -22 23 -32 33 -34 76 0
-60 -61 -62 21 -22 23 -32 -33 34 63 0
-60 -61 -62 21 -22 23 -32 -33 -34 64 0
-60 -61 -62 21 -22 -23 32 33 34 83 0
-60 -61 -62 21 -22 -23 32 33 -34 82 0
-60 -61 -62 21 -22 -23 32 -33 34 84 0
-60 -61 -62 21 -22 -23 32 -33 -34 85 0
-60 -61 -62 21 -22 -23 -32 33 34 65 0
-60 -61 -62 21 -22 -23 -32 33 -34 76 0
-60 -61 -62 21 -22 -23 -32 -33 34 64 0
-60 -61 -62 21 -22 -23 -32 -33 -34 63 0
-60 -61 -62 -21 22 23 32 33 34 63 0
-60 -61 -62 -21 22 23 32 33 -34 82 0
-60 -61 -62 -21 22 23 32 -33 34 76 0
-60 -61 -62 -21 22 23 32 -33 -34 76 0
-60 -61 -62 -21 22 23 -32 33 34 77 0
-60 -61 -62 -21 22 23 -32 33 -34 65 0
-60 -61 -62 -21 22 23 -32 -33 34 63 0
-60 -61 -62 -21 22 23 -32 -33 -34 63 0
-60 -61 -62 -21 22 -23 32 33 34 63 0
-60 -61 -62 -21 22 -23 32 33 -34 65 0
-60 -61 -62 -21 22 -23 32 -33 34 65 0
-60 -61 -62 -21 22 -23 32 -33 -34 72 0
-60 -61 -62 -21 22 -23 -32 33 34 76 0
-60 -61 -62 -21 22 -23 -32 33 -34 82 0
-60 -61 -62 -21 22 -23 -32 -33 34 65 0
-60 -61 -62 -21 22 -23 -32 -33 -34 64 0
-60 -61 -62 -21 -22 23 32 33 34 63 0
-60 -61 -62 -21 -22 23 32 33 -34 82 0
-60 -61 -62 -21 -22 23 32 -33 34 65 0
-60 -61 -62 -21 -22 23 32 -33 -34 63 0
-60 -61 -62 -21 -22 23 -32 33 34 65 0
-60 -61 -62 -21 -22 23 -32 33 -34 63 0
-60 -61 -62 -21 -22 23 -32 -33 34 63 0
-60 -61 -62 -21 -22 23 -32 -33 -34 63 0
-60 -61 -62 -21 -22 -23 32 33 34 63 0
-60 -61 -62 -21 -22 -23 32 33 -34 63 0
-60 -61 -62 -21 -22 -23 32 -33 34 63 0
-60 -61 -62 -21 -22 -23 32 -33 -34 63 0
-60 -61 -62 -21 -22 -23 -32 33 34 65 0
-60 -61 -62 -21 -22 -23 -32 33 -34 63 0
-60 -61 -62 -21 -22 -23 -32 -33 34 63 0
-60 -61 -62 -21 -22 -23 -32 -33 -34 63 0
